Route #1: 53 58 40 21 73 72 74 22
Route #2: 27 28 26 12 80 68
Route #3: 89 6 94 95 97 92 59
Route #4: 13 87 2 57 15 43 42 100 37
Route #5: 52 18 60 83 84 5 99 96 93
Route #6: 69 1 50 76 77 3 79 33
Route #7: 31 88 7 82 48
Route #8: 70 30 20 51 9 81 78 34 35
Route #9: 98 85 91 16 61 17 45 8 46
Route #10: 54 55 25 39 56 75 41
Route #11: 4 23 67 24 29 71
Route #12: 10 62 11 19 47 36
Route #13: 44 14 38 86
Route #14: 90 32 63 64 49 66
Route #15: 65
cost: 1376
